# Geometry optimization Mg(en)2. Structure built from Avogadro
# Under PCM of water

! UKS B3LYP ZORA def2-TZVP SARC/J TightSCF
! Normalprint Opt CPCMC(water)

%pal
        nprocs 24
end

%scf
        MaxIter 500
end

%geom 
  ConstrainFragments { 1 3 4 5 } end 
  ConnectFragments
	{1 2 O 5 6}
	{3 2 O 13 6}
	{4 2 O 15 6}
	{5 2 O 7 6}
  end

  Scan
	B	6	13	[1.2 1.3 1.4 1.5 1.6 1.7 1.8 1.9 2.0 2.5 3.0 3.5]
	B	6	15	[1.2 1.3 1.4 1.5 1.6 1.7 1.8 1.9 2.0 2.5 3.0 3.5] 
  end
end

* xyz -1 1
C(1)         -1.27765       -0.92881        1.86442
C(1)         -0.32013       -0.95873        2.87197
C(1)          0.51282        0.13916        3.08169
C(1)          0.38049        1.26227        2.27270
C(1)         -0.57914        1.28617        1.26242
C(1)         -1.41755        0.19557        1.04778
C(2)         -2.45124        0.25957       -0.06893
O(5)         -2.53714        1.29096       -0.79321
H(1)         -0.22273       -1.83914        3.49653
H(1)          1.25801        0.11622        3.86791
H(1)          1.02325        2.12150        2.42499
H(1)         -0.68175        2.15526        0.62609
H(1)         -1.92221       -1.78330        1.70851
O(3)         -2.17650       -1.05907       -0.93248
H(3)         -2.41673       -0.75400       -1.81716
O(4)         -3.80045       -0.11410        0.70565
C(4)         -4.94598       -0.05619       -0.11828
H(4)         -4.85694       -0.76794       -0.95108
H(4)         -5.05764        0.94268       -0.55834
C(4)         -6.17235       -0.39266        0.71517
H(4)         -6.09820       -1.39990        1.13218
H(4)         -7.07557       -0.34342        0.10136
H(4)         -6.28430        0.31188        1.54309
N(5)         -3.01651        4.85053        0.09540
H(5)         -2.86884        3.85505       -0.07517
H(5)         -2.36703        5.11259        0.82992
C(5)         -4.39187        5.08088        0.55309
H(5)         -5.09017        4.79621       -0.23679
H(5)         -4.54148        6.14389        0.75468
H(5)         -4.66860        4.52608        1.45966
N(5)         -2.88938        1.66171       -4.45769
C(5)         -4.13280        1.04656       -4.93684
H(5)         -2.09470        1.20329       -4.89199
H(5)         -2.79196        1.51229       -3.45316
H(5)         -4.22478        1.18984       -6.01567
H(5)         -4.98667        1.53939       -4.46719
H(5)         -4.21618       -0.02950       -4.73345
*
