# Geometry optimization Mg(en)2. Structure built from Avogadro
# Under PCM of water

! UKS B3LYP ZORA def2-TZVP SARC/J TightSCF
! Normalprint Opt CPCMC(water)

%pal
        nprocs 24
end

%scf
        MaxIter 500
end

%geom Scan
	B	7	9	[1.2 1.3 1.4 1.5 1.7 2.0 2.5 3.0 3.5 4.0]
	B	7	22	[1.2 1.3 1.4 1.5 1.7 2.0 2.5 3.0 3.5 4.0] 
end
end

* xyz 1 1
H          2.26987        0.32242        2.61165
C          1.57094        0.17549        1.79839
C          0.20332        0.35106        2.01282
H         -0.15738        0.63508        2.99305
C         -0.70135        0.16117        0.96439
H         -1.75729        0.30546        1.15524
C         -0.24980       -0.20739       -0.31893
C         -1.26840       -0.40552       -1.43635
O         -0.60473       -0.73889       -2.63943
O         -2.00320        0.81086       -1.57879
C         -2.90067        0.81178       -2.67792
C          1.13758       -0.38037       -0.51926
H          1.53758       -0.66541       -1.48291
C          2.03694       -0.18979        0.53451
H          3.09809       -0.32635        0.37025
C         -4.32785        0.97284       -2.17365
H         -2.85247       -0.09736       -3.31788
H         -2.64647        1.67222       -3.33226
H         -4.61074        0.10915       -1.53676
H         -5.02656        1.02455       -3.03512
H         -4.41845        1.90703       -1.58004
H         -0.19245        0.09334       -2.99240
O         -2.11372       -1.47779       -1.05570
H         -2.81464       -1.11972       -0.45166
H         -2.60381       -1.79091       -1.85834
*
