# Geometry optimization Mg(en)2. Structure built from Avogadro
# Under PCM of water

! UKS B3LYP ZORA def2-TZVP SARC/J TightSCF
! Normalprint Opt CPCMC(water)

%pal
        nprocs 32
end

%scf
        MaxIter 500
end

%geom Scan
	B	7	9	[1.2 1.3 1.4 1.5 1.7 2.0 2.5 3.0 3.5]
	B	7	21	[1.2 1.3 1.4 1.5 1.7 2.0 2.5 3.0 3.5] 
end
end

* xyz 0 1
H          2.04753        0.30719        2.66992
C          1.41454        0.13674        1.80860
C          0.03135        0.28284        1.91907
H         -0.40703        0.56671        2.86717
C         -0.78900        0.06303        0.80881
H         -1.85937        0.18305        0.92261
C         -0.23549       -0.30729       -0.43767
C         -1.12842       -0.54574       -1.62407
O         -0.49141       -0.70860       -2.65987
O         -1.95272        0.53779       -1.67117
C         -2.87705        0.78033       -2.67281
C          1.16791       -0.45192       -0.52785
H          1.64173       -0.73729       -1.45840
C          1.98147       -0.23024        0.58753
H          3.05470       -0.34419        0.50433
C         -4.27036        0.87241       -2.06959
H         -2.86841       -0.02647       -3.44011
H         -2.62705        1.74139       -3.16958
H         -4.53483       -0.08650       -1.57544
H         -5.01194        1.08168       -2.86911
H         -4.30740        1.69081       -1.31969
O         -1.89273       -1.63582       -1.33058
H         -2.51440       -1.62988       -0.58693
H         -1.88555       -2.42516       -1.89337
*
