# Geometry optimization Mg(en)2. Structure built from Avogadro
# Under PCM of water

! UKS B3LYP ZORA def2-TZVP SARC/J TightSCF
! Normalprint Opt CPCMC(water)

%pal
        nprocs 24
end

%scf
        MaxIter 500
end

%geom 
  ConstrainFragments { 1 3 4 5 } end 
  ConnectFragments
	{1 2 O 5 6}
	{3 2 O 13 6}
	{4 2 O 15 6}
	{5 2 O 7 6}
  end

  Scan
	B	6	13	[1.2 1.3 1.4 1.5 1.6 1.7 1.8 1.9 2.0 2.5 3.0 3.5]
	B	6	15	[1.2 1.3 1.4 1.5 1.6 1.7 1.8 1.9 2.0 2.5 3.0 3.5] 
  end
end

* xyz -1 1
C(1)         -1.27765       -0.92881        1.86442
C(1)         -0.32013       -0.95873        2.87197
C(1)          0.51282        0.13916        3.08169
C(1)          0.38049        1.26227        2.27270
C(1)         -0.57914        1.28617        1.26242
C(1)         -1.41755        0.19557        1.04778
C(2)         -2.45124        0.25957       -0.06893
O(5)         -2.53714        1.29096       -0.79321
H(1)         -0.22273       -1.83914        3.49653
H(1)          1.25801        0.11622        3.86791
H(1)          1.02325        2.12150        2.42499
H(1)         -0.68175        2.15526        0.62609
H(1)         -1.92221       -1.78330        1.70851
O(3)         -2.17650       -1.05907       -0.93248
H(3)         -2.41673       -0.75400       -1.81716
O(4)         -3.80045       -0.11410        0.70565
C(4)         -4.94598       -0.05619       -0.11828
H(4)         -4.85694       -0.76794       -0.95108
H(4)         -5.05764        0.94268       -0.55834
C(4)         -6.17235       -0.39266        0.71517
H(4)         -6.09820       -1.39990        1.13218
H(4)         -7.07557       -0.34342        0.10136
H(4)         -6.28430        0.31188        1.54309
N(5)         -2.88695        3.88849       -0.14476
H(5)         -2.73928        2.89301       -0.31534
H(5)         -2.23747        4.15054        0.58975
C(5)         -4.26230        4.11883        0.31293
H(5)         -4.96061        3.83417       -0.47696
H(5)         -4.41192        5.18184        0.51452
H(5)         -4.53904        3.56403        1.21949
N(5)         -2.79418        1.56151       -3.46729
C(5)         -4.03760        0.94635       -3.94644
H(5)         -1.99949        1.10309       -3.90159
H(5)         -2.69676        1.41208       -2.46276
H(5)         -4.12958        1.08963       -5.02527
H(5)         -4.89147        1.43919       -3.47679
H(5)         -4.12098       -0.12970       -3.74305
*
