# custom: ester_hbond

! UKS B3LYP ZORA def2-TZVP SARC/J TightSCF
! Normalprint Opt CPCMC(water)

# https://sites.google.com/site/orcainputlibrary/geometry-optimizations
%geom Scan
B 20 21 = 2.0, 4.0, 11
end
end

%pal
        nprocs 16
end

%scf
        MaxIter 500
end

* xyzfile 0 1 guess.xyz
