# Geometry optimization Mg(en)2. Structure built from Avogadro
# Under PCM of water

! UKS B3LYP ZORA def2-TZVP SARC/J TightSCF
! Normalprint Opt CPCMC(water)

%pal
        nprocs 24
end

%scf
        MaxIter 500
end

%geom 
  ConstrainFragments { 1 3 4 5 } end 
  ConnectFragments
	{1 2 O 5 6}
	{3 2 O 13 6}
	{4 2 O 15 6}
	{5 2 O 7 6}
  end

  Scan
	B	6	13	[1.2 1.3 1.4 1.5 1.6 1.7 1.8 1.9 2.0 2.5 3.0 3.5]
	B	6	15	[1.2 1.3 1.4 1.5 1.6 1.7 1.8 1.9 2.0 2.5 3.0 3.5] 
  end
end

* xyz -1 1
C(1)         -1.27765       -0.92881        1.86442
C(1)         -0.32013       -0.95873        2.87197
C(1)          0.51282        0.13916        3.08169
C(1)          0.38049        1.26227        2.27270
C(1)         -0.57914        1.28617        1.26242
C(1)         -1.41755        0.19557        1.04778
C(2)         -2.45124        0.25957       -0.06893
O(5)         -2.53714        1.29096       -0.79321
H(1)         -0.22273       -1.83914        3.49653
H(1)          1.25801        0.11622        3.86791
H(1)          1.02325        2.12150        2.42499
H(1)         -0.68175        2.15526        0.62609
H(1)         -1.92221       -1.78330        1.70851
O(3)         -2.17650       -1.05907       -0.93248
H(3)         -2.41673       -0.75400       -1.81716
O(4)         -3.80045       -0.11410        0.70565
C(4)         -4.94598       -0.05619       -0.11828
H(4)         -4.85694       -0.76794       -0.95108
H(4)         -5.05764        0.94268       -0.55834
C(4)         -6.17235       -0.39266        0.71517
H(4)         -6.09820       -1.39990        1.13218
H(4)         -7.07557       -0.34342        0.10136
H(4)         -6.28430        0.31188        1.54309
N(5)         -2.99060        4.65812        0.04737
H(5)         -2.84293        3.66264       -0.12321
H(5)         -2.34112        4.92018        0.78188
C(5)         -4.36595        4.88847        0.50506
H(5)         -5.06426        4.60380       -0.28483
H(5)         -4.51557        5.95148        0.70665
H(5)         -4.64269        4.33367        1.41162
N(5)         -2.87034        1.64167       -4.25961
C(5)         -4.11376        1.02652       -4.73876
H(5)         -2.07566        1.18325       -4.69391
H(5)         -2.77292        1.49225       -3.25508
H(5)         -4.20574        1.16980       -5.81759
H(5)         -4.96763        1.51935       -4.26911
H(5)         -4.19714       -0.04954       -4.53537
*
