# Geometry optimization Mg(en)2. Structure built from Avogadro
# Under PCM of water

! UKS B3LYP ZORA def2-TZVP SARC/J TightSCF
! Normalprint Opt CPCMC(water)

%pal
        nprocs 24
end

%scf
        MaxIter 500
end

%geom Scan
	B	7	9	[1.2 1.3 1.4 1.5 1.7 2.0 2.5 3.0 3.5 4.0]
	B	7	21	[1.2 1.3 1.4 1.5 1.7 2.0 2.5 3.0 3.5 4.0] 
end
end

* xyz -1 1
H          2.16309        0.40741        2.63560
C          1.51136        0.23800        1.78818
C          0.13365        0.41605        1.92033
H         -0.28168        0.72332        2.87148
C         -0.71069        0.19831        0.82767
H         -1.77630        0.34327        0.95649
C         -0.18726       -0.20350       -0.42090
C         -1.11067       -0.43599       -1.58146
O         -0.49690       -0.68611       -2.61090
O         -1.88679        0.67927       -1.68317
C         -2.78261        0.92927       -2.70893
C          1.21103       -0.38011       -0.53415
H          1.66226       -0.68860       -1.46857
C          2.04879       -0.15918        0.56316
H          3.11772       -0.29705        0.46270
C         -4.17804        1.12054       -2.13452
H         -2.80532        0.09380       -3.44440
H         -2.47456        1.85581       -3.23782
H         -4.50339        0.19798       -1.60886
H         -4.89399        1.33887       -2.95480
H         -4.18170        1.96895       -1.41772
O         -1.90574       -1.48067       -1.24601
H         -2.61237       -1.41016       -0.58639
*
