# Geometry optimization Mg(en)2. Structure built from Avogadro
# Under PCM of water

! UKS B3LYP ZORA def2-TZVP SARC/J TightSCF
! Normalprint Opt CPCMC(water)

%pal
        nprocs 24
end

%scf
        MaxIter 500
end

%geom 
  RigidFrags {1 3 4} end
  Scan
	B	6	14	[1.2 1.3 1.4 1.5 1.6 1.7 1.8 1.9 2.0 2.5 3.0 3.5]
	B	6	17	[1.2 1.3 1.4 1.5 1.6 1.7 1.8 1.9 2.0 2.5 3.0 3.5] 
  end
end

* xyz 1 1
C(1)        -1.03389        1.07133        0.07418
C(1)         0.35328        0.94731        0.19318
C(1)        0.96240       -0.29679        0.02569
C(1)         0.18597       -1.42053       -0.25993
C(1)        -1.20213       -1.30501       -0.38126
C(1)       -1.83799       -0.05305       -0.21977
C(2)        -3.32657        0.09613       -0.33182
O(5)        -3.54943        1.06226       -1.05055
H(5)         -4.12819        1.74500       -1.01703
H(1)         0.95648        1.81760        0.41747
H(1)         2.03657       -0.39082        0.11966
H(1)          0.66028       -2.38530       -0.38615
H(1)         -1.77030       -2.19995       -0.59889
H(1)        -1.48386        2.04696        0.21261
O(3)         -4.01869       -1.11448       -0.70215
H(3)         -3.72651       -1.87890       -0.14479
H(3)         -3.71546       -1.31643       -1.62600
O(4)         -3.73672        0.37308        0.93823
C(4)         -4.85816       -0.13757        1.57160
H(4)         -4.86211        0.22694        2.62034
H(4)         -4.81327       -1.24810        1.59400
C(4)         -6.14599        0.33067        0.89734
H(4)         -6.19488        1.44002        0.90236
H(4)         -7.02101       -0.07017        1.45101
H(4)         -6.19909       -0.02995       -0.15059*
